Minimize
  obj: x0 + x1 + x2 + x3 + x4 + x5 + x6

Subject To
  c0: x0 + x2 + x5 + x6 = 47
  c1: x2 + x6 = 27
  c2: x0 + x1 + x2 + x3 + x4 + x6 = 89
  c3: x2 + x3 + x6 = 37
  c4: x0 + x2 = 37
  c5: x0 + x3 + x4 = 49
  c6: x1 + x3 + x4 + x5 = 42
  c7: x2 + x3 + x5 + x6 = 37
  c8: x6 = 10

Bounds
  x0 >= 0
  x1 >= 0
  x2 >= 0
  x3 >= 0
  x4 >= 0
  x5 >= 0
  x6 >= 0

Generals
  x0 x1 x2 x3 x4 x5 x6

End
